; benchmark generated from python API
(set-info :status unknown)
(declare-datatypes ((RealState 0)) (((RMk1 (rval1 Real)) (RMk2 (rval2 Real)))))
 (assert
 (exists ((?x1_st RealState) (val!534 Real) )(forall ((?x2 Real) )(exists ((?x3_st RealState) (val!535 Real) )(let ((?x4348 (+ (+ (* 21.0 (rval2 ?x1_st)) (* (- 8.0) ?x2)) (* (- 53.0) (rval2 ?x3_st)))))
 (let ((?x6761 (+ (+ (* 80.0 (rval2 ?x1_st)) (* (- 95.0) ?x2)) (* (- 98.0) (rval2 ?x3_st)))))
 (let (($x10241 (not (= (+ (* 33.0 (rval2 ?x1_st)) (* 74.0 (rval2 ?x3_st))) (- 85.0)))))
 (let ((?x4672 (- 66.0)))
 (let ((?x16718 (+ (+ (* 65.0 (rval2 ?x1_st)) (* (- 77.0) ?x2)) (* (- 14.0) (rval2 ?x3_st)))))
 (let ((?x14084 (+ (+ (* 8.0 (rval2 ?x1_st)) (* (- 71.0) ?x2)) (* (- 12.0) (rval2 ?x3_st)))))
 (let ((?x7352 (+ (+ (* (- 7.0) (rval2 ?x1_st)) (* (- 61.0) ?x2)) (* (- 13.0) (rval2 ?x3_st)))))
 (let (($x4633 (and (and (= ?x7352 51.0) (or (not (= ?x14084 ?x4672)) (not (= ?x16718 ?x4672)))) (and $x10241 (and (= ?x6761 11.0) (<= ?x4348 5.0))))))
 (let (($x5574 (or (> (+ (* (- 69.0) (rval2 ?x1_st)) (* 23.0 ?x2)) 0.0) (>= (+ (* 46.0 (rval2 ?x1_st)) (* (- 63.0) ?x2)) (- 35.0)))))
 (let (($x10932 (not (= (+ (* (- 21.0) (rval2 ?x1_st)) (* (- 95.0) ?x2)) 3.0))))
 (let (($x2490 (or (and (not (= (* (- 33.0) (rval2 ?x1_st)) (- 93.0))) $x10932) $x5574)))
 (let ((?x12491 (rval2 ?x3_st)))
 (let ((?x15967 (* 19.0 ?x12491)))
 (let ((?x472 (+ (+ (* (- 24.0) (rval2 ?x1_st)) (* (- 14.0) ?x2)) (* (- 79.0) ?x12491))))
 (let (($x20388 (or (< ?x472 0.0) (= (+ (+ (* (- 80.0) (rval2 ?x1_st)) (* 80.0 ?x2)) ?x15967) 0.0))))
 (let (($x9123 (and (or (< (+ (* (- 30.0) ?x2) (* 36.0 ?x12491)) 64.0) $x20388) $x2490)))
 (let (($x636 (not (= ?x3_st (RMk1 val!535)))))
 (let (($x12990 (not (= ?x1_st (RMk1 val!534)))))
 (and $x12990 $x636 (and $x9123 $x4633)))))))))))))))))))))
 )
 )
 )
(check-sat)
